/*********************************************
 * OPL 12.9.0.0 Data
 * Author: iefcyang
 * Creation Date: Mar 30, 2023 at 2:39:43 PM
 *********************************************/
  
numberOfProducts = 8;
numberOfOrders = 20;
numberOfPods = 9;
numberOfBatches = 4; // 
orderLimitInBatch = 5;

//int a[products, orders ] = ...;
//int x[products,pods] = ...;

a =
[
[1,0,0,0,1,0,0,0,1,0,0,0,1,0,0,0,0,0,0,0],
[1,0,0,0,1,0,0,0,1,0,0,0,1,0,0,0,0,0,0,0],
[0,1,0,0,0,1,0,0,0,1,0,0,0,1,0,0,1,0,0,0],
[0,1,0,0,0,1,0,0,0,1,0,0,0,1,0,0,0,1,0,0],
[0,0,1,0,0,0,1,0,0,0,1,0,0,0,1,0,0,0,0,1],
[0,0,1,0,0,0,1,0,0,0,1,0,0,0,1,0,0,0,1,0],
[0,0,0,1,0,0,0,1,0,0,0,1,0,0,0,1,0,0,0,0],
[0,0,0,1,0,0,0,1,0,0,0,1,0,0,0,1,0,0,0,0],
];
// B = 3
x =
[
[1,0,0,1,1,0,0,0,0],
[0,1,0,0,1,0,0,0,0],
[0,0,1,0,1,0,0,0,0],
[0,0,0,1,1,0,0,0,0],
[0,0,0,0,1,1,0,0,0],
[0,0,0,0,1,0,1,0,0],
[0,0,0,0,1,0,0,1,0],
[0,0,0,1,1,0,0,0,1]
];

 